
Gurobi 6.5.2 (linux64) logging started Mon Aug 29 10:58:05 2016

Optimize a model with 201 rows, 2575 columns and 5525 nonzeros
Coefficient statistics:
  Matrix range    [1e+00, 2e+00]
  Objective range [1e+00, 1e+02]
  Bounds range    [1e+00, 1e+00]
  RHS range       [1e+00, 1e+00]
Found heuristic solution: objective 6760
Presolve removed 59 rows and 4 columns
Presolve time: 0.01s
Presolved: 142 rows, 2571 columns, 5221 nonzeros
Variable types: 0 continuous, 2571 integer (2571 binary)

Root relaxation: objective 9.835000e+02, 145 iterations, 0.00 seconds

    Nodes    |    Current Node    |     Objective Bounds      |     Work
 Expl Unexpl |  Obj  Depth IntInf | Incumbent    BestBd   Gap | It/Node Time

     0     0  983.50000    0    8 6760.00000  983.50000  85.5%     -    0s
H    0     0                    1048.0000000  983.50000  6.15%     -    0s
H    0     0                    1031.0000000  983.50000  4.61%     -    0s
H    0     0                    1011.0000000  983.50000  2.72%     -    0s
H    0     0                     994.0000000  983.50000  1.06%     -    0s
H    0     0                     990.0000000  988.00000  0.20%     -    0s
     0     0  988.50000    0    6  990.00000  988.50000  0.15%     -    0s
     0     0  988.50000    0    5  990.00000  988.50000  0.15%     -    0s
     0     0     cutoff    0       990.00000  989.00099  0.10%     -    0s

Cutting planes:
  Gomory: 2
  Clique: 1
  Zero half: 2

Explored 0 nodes (284 simplex iterations) in 0.05 seconds
Thread count was 8 (of 8 available processors)

Optimal solution found (tolerance 1.00e-04)
Best objective 9.900000000000e+02, best bound 9.900000000000e+02, gap 0.0%
